0 2 -1 0 4 5 2 8 8 -1 
6 5 8 0 0 1 2 1 7 -1 
6 8 8 6 2 6 9 -1 8 -1 
9 5 5 -1 8 0 0 1 9 -1 
0 0 2 7 -1 9 1 7 2 -1 
6 9 1 -1 4 6 -1 3 1 -1 
1 9 1 7 7 1 5 3 4 -1 
1 9 2 0 -1 4 5 7 0 -1 
5 0 2 -1 -1 3 1 -1 4 -1 
1 2 6 6 9 7 6 7 8 -1 
